certificates/rado_a13_c231_N33.cnf
c Rad2 upper bound instance: x1 + 13*x2 - x3 = 231, interval [1,33]
p cnf 33 168
1 4 18 0
-1 -4 -18 0
1 17 19 0
-1 -17 -19 0
1 20 30 0
-1 -20 -30 0
2 5 18 0
-2 -5 -18 0
2 18 19 0
-2 -18 -19 0
2 20 31 0
-2 -20 -31 0
3 6 18 0
-3 -6 -18 0
3 19 0
-3 -19 0
3 20 32 0
-3 -20 -32 0
4 7 18 0
-4 -7 -18 0
4 19 20 0
-4 -19 -20 0
4 20 33 0
-4 -20 -33 0
5 8 18 0
-5 -8 -18 0
5 19 21 0
-5 -19 -21 0
6 9 18 0
-6 -9 -18 0
6 19 22 0
-6 -19 -22 0
7 10 18 0
-7 -10 -18 0
7 19 23 0
-7 -19 -23 0
8 11 18 0
-8 -11 -18 0
8 19 24 0
-8 -19 -24 0
9 12 18 0
-9 -12 -18 0
9 19 25 0
-9 -19 -25 0
10 13 18 0
-10 -13 -18 0
10 19 26 0
-10 -19 -26 0
1 11 17 0
-1 -11 -17 0
11 14 18 0
-11 -14 -18 0
11 19 27 0
-11 -19 -27 0
2 12 17 0
-2 -12 -17 0
12 15 18 0
-12 -15 -18 0
12 19 28 0
-12 -19 -28 0
3 13 17 0
-3 -13 -17 0
13 16 18 0
-13 -16 -18 0
13 19 29 0
-13 -19 -29 0
4 14 17 0
-4 -14 -17 0
14 17 18 0
-14 -17 -18 0
14 19 30 0
-14 -19 -30 0
5 15 17 0
-5 -15 -17 0
15 18 0
-15 -18 0
15 19 31 0
-15 -19 -31 0
6 16 17 0
-6 -16 -17 0
16 18 19 0
-16 -18 -19 0
16 19 32 0
-16 -19 -32 0
7 17 0
-7 -17 0
17 18 20 0
-17 -18 -20 0
17 19 33 0
-17 -19 -33 0
8 17 18 0
-8 -17 -18 0
18 21 0
-18 -21 0
9 17 19 0
-9 -17 -19 0
18 19 22 0
-18 -19 -22 0
10 17 20 0
-10 -17 -20 0
18 20 23 0
-18 -20 -23 0
11 17 21 0
-11 -17 -21 0
18 21 24 0
-18 -21 -24 0
12 17 22 0
-12 -17 -22 0
18 22 25 0
-18 -22 -25 0
13 17 23 0
-13 -17 -23 0
18 23 26 0
-18 -23 -26 0
1 16 24 0
-1 -16 -24 0
14 17 24 0
-14 -17 -24 0
18 24 27 0
-18 -24 -27 0
2 16 25 0
-2 -16 -25 0
15 17 25 0
-15 -17 -25 0
18 25 28 0
-18 -25 -28 0
3 16 26 0
-3 -16 -26 0
16 17 26 0
-16 -17 -26 0
18 26 29 0
-18 -26 -29 0
4 16 27 0
-4 -16 -27 0
17 27 0
-17 -27 0
18 27 30 0
-18 -27 -30 0
5 16 28 0
-5 -16 -28 0
17 18 28 0
-17 -18 -28 0
18 28 31 0
-18 -28 -31 0
6 16 29 0
-6 -16 -29 0
17 19 29 0
-17 -19 -29 0
18 29 32 0
-18 -29 -32 0
7 16 30 0
-7 -16 -30 0
17 20 30 0
-17 -20 -30 0
18 30 33 0
-18 -30 -33 0
8 16 31 0
-8 -16 -31 0
17 21 31 0
-17 -21 -31 0
9 16 32 0
-9 -16 -32 0
17 22 32 0
-17 -22 -32 0
10 16 33 0
-10 -16 -33 0
17 23 33 0
-17 -23 -33 0
