certificates/rado_a13_c231_N33.drat
18 -31 -32 0
-20 -18 -33 0
-18 -33 0
d -30 -18 -33 0
20 -33 0
-32 -33 0
-19 -33 0
-33 0
19 -21 0
18 0
-15 0
-21 0
-19 0
3 0
17 0
31 0
5 0
-6 0
-13 0
-14 0
-7 0
-20 0
-8 0
-27 0
-28 0
-2 0
22 0
29 0
30 0
23 0
4 0
24 0
11 0
12 0
-25 0
-32 0
0
